50
150
100
98
97
95
87
87
87
84
80
77
76
73
71
66
66
62
61
60
60
60
57
56
53
52
51
49
46
44
44
43
43
38
33
31
30
29
29
28
24
22
18
17
16
16
16
15
12
8
3
2
